Version identifier: 22.1.0.0 | 2022-03-09 | 1a383f8ce
CPXPARAM_Threads                                 1
CPXPARAM_MIP_Strategy_VariableSelect             3
CPXPARAM_TimeLimit                               600
Tried aggregator 1 time.
MIP Presolve eliminated 7 rows and 0 columns.
MIP Presolve modified 1 coefficients.
Reduced MIP has 1818 rows, 7501 columns, and 83247 nonzeros.
Reduced MIP has 7500 binaries, 0 generals, 0 SOSs, and 0 indicators.
Presolve time = 0.04 sec. (27.23 ticks)
Found incumbent of value 59.000000 after 0.12 sec. (76.09 ticks)
Probing time = 0.01 sec. (7.35 ticks)
Tried aggregator 1 time.
Detecting symmetries...
Reduced MIP has 1818 rows, 7501 columns, and 83247 nonzeros.
Reduced MIP has 7500 binaries, 0 generals, 0 SOSs, and 0 indicators.
Presolve time = 0.05 sec. (33.33 ticks)
Probing time = 0.01 sec. (7.35 ticks)
Clique table members: 301.
MIP emphasis: balance optimality and feasibility.
MIP search method: dynamic search.
Parallel mode: none, using 1 thread.
Root relaxation solution time = 1.79 sec. (1893.84 ticks)

        Nodes                                         Cuts/
   Node  Left     Objective  IInf  Best Integer    Best Bound    ItCnt     Gap

*     0+    0                           59.0000        0.0000           100.00%
      0     0        0.0000  1413       59.0000        0.0000     5449  100.00%
*     0+    0                            4.0000        0.0000           100.00%
*     0+    0                            1.0000        0.0000           100.00%
Detecting symmetries...
      0     2        0.0000   297        1.0000        0.0000     5449  100.00%
Elapsed time = 20.20 sec. (21620.58 ticks, tree = 0.01 MB, solutions = 3)
      1     3        0.0000   595        1.0000        0.0000    16239  100.00%
      2     4        0.0000   263        1.0000        0.0000    17063  100.00%
      3     5        0.0000   668        1.0000        0.0000    23288  100.00%
      4     6        0.0000   278        1.0000        0.0000    24127  100.00%
      5     7        0.0000   679        1.0000        0.0000    31613  100.00%
      6     8        0.0000   394        1.0000        0.0000    38206  100.00%
      7     9        0.0000   563        1.0000        0.0000    44096  100.00%
      8    10        0.0000   384        1.0000        0.0000    44986  100.00%
      9    11        0.0000   646        1.0000        0.0000    51506  100.00%
     10    12        0.0000   490        1.0000        0.0000    56385  100.00%
Elapsed time = 41.44 sec. (44186.97 ticks, tree = 0.03 MB, solutions = 3)
     11    13        0.0000   710        1.0000        0.0000    60457  100.00%
     13    15        0.0000   525        1.0000        0.0000    63366  100.00%
     14    16        0.0000   663        1.0000        0.0000    68243  100.00%
     15    17        0.0000   658        1.0000        0.0000    71521  100.00%
     17    19        0.0000   511        1.0000        0.0000    74672  100.00%
     18    20        0.0000   792        1.0000        0.0000    81005  100.00%
     20    22        0.0000   994        1.0000        0.0000    87760  100.00%
     21    23        0.0000   526        1.0000        0.0000    90530  100.00%
     22    24        0.0000   656        1.0000        0.0000    96576  100.00%
     25    27        0.0000   553        1.0000        0.0000    98460  100.00%
Elapsed time = 62.42 sec. (66825.65 ticks, tree = 0.22 MB, solutions = 3)
     26    28        0.0000   473        1.0000        0.0000   109068  100.00%
     27    29        0.0000  1001        1.0000        0.0000   114775  100.00%
     28    30        0.0000   558        1.0000        0.0000   123763  100.00%
     29    31        0.0000   978        1.0000        0.0000   129888  100.00%
     31    33        0.0000   873        1.0000        0.0000   136226  100.00%
     33    35        0.0000   853        1.0000        0.0000   141305  100.00%
     35    37        0.0000   882        1.0000        0.0000   146283  100.00%
     37    39        0.0000   840        1.0000        0.0000   152916  100.00%
     39    41        0.0000  1025        1.0000        0.0000   158671  100.00%
     40    42        0.0000   500        1.0000        0.0000   158760  100.00%
Elapsed time = 93.10 sec. (98291.70 ticks, tree = 0.42 MB, solutions = 3)
     41    43        0.0000   565        1.0000        0.0000   167041  100.00%
     43    45        0.0000   496        1.0000        0.0000   167541  100.00%
     44    46        0.0000   532        1.0000        0.0000   171848  100.00%
     45    47        0.0000   514        1.0000        0.0000   176309  100.00%
     47    49        0.0000   487        1.0000        0.0000   182185  100.00%
     50    52        0.0000   452        1.0000        0.0000   183008  100.00%
     51    53        0.0000   905        1.0000        0.0000   187166  100.00%
     53    55        0.0000   485        1.0000        0.0000   190755  100.00%
     54    56        0.0000   448        1.0000        0.0000   194448  100.00%
     55    57        0.0000   855        1.0000        0.0000   197385  100.00%
Elapsed time = 113.05 sec. (118768.60 ticks, tree = 0.60 MB, solutions = 3)
     57    59        0.0000   439        1.0000        0.0000   198659  100.00%
     58    60        0.0000   446        1.0000        0.0000   203187  100.00%
     59    61        0.0000   529        1.0000        0.0000   209030  100.00%
     60    62        0.0000   429        1.0000        0.0000   209167  100.00%
     61    63        0.0000   559        1.0000        0.0000   213911  100.00%
     63    65        0.0000   896        1.0000        0.0000   219364  100.00%
     64    66        0.0000   411        1.0000        0.0000   227130  100.00%
     65    67        0.0000   970        1.0000        0.0000   234322  100.00%
     66    68        0.0000   633        1.0000        0.0000   239845  100.00%
     67    69        0.0000   888        1.0000        0.0000   243669  100.00%
Elapsed time = 136.34 sec. (142525.05 ticks, tree = 0.75 MB, solutions = 3)
     69    71        0.0000   890        1.0000        0.0000   248563  100.00%
     71    73        0.0000  1079        1.0000        0.0000   254536  100.00%
     73    75        0.0000   777        1.0000        0.0000   259720  100.00%
     75    77        0.0000   814        1.0000        0.0000   264156  100.00%
     77    79        0.0000   626        1.0000        0.0000   269374  100.00%
     79    81        0.0000   530        1.0000        0.0000   273455  100.00%
     80    82        0.0000   835        1.0000        0.0000   276871  100.00%
     81    83        0.0000   603        1.0000        0.0000   284088  100.00%
     82    84        0.0000   693        1.0000        0.0000   289625  100.00%
     84    86        0.0000   592        1.0000        0.0000   289944  100.00%
Elapsed time = 163.81 sec. (170303.19 ticks, tree = 0.97 MB, solutions = 3)
     85    87        0.0000   619        1.0000        0.0000   293551  100.00%
     87    89        0.0000   811        1.0000        0.0000   297445  100.00%
     89    91        0.0000   659        1.0000        0.0000   302692  100.00%
     90    92        0.0000   578        1.0000        0.0000   302783  100.00%
     91    93        0.0000   762        1.0000        0.0000   307791  100.00%
     93    95        0.0000   579        1.0000        0.0000   312307  100.00%
     95    97        0.0000   538        1.0000        0.0000   313808  100.00%
     96    98       -0.0000   484        1.0000        0.0000   318500  100.00%
     98   100       -0.0000   835        1.0000        0.0000   322838  100.00%
     99   101       -0.0000   442        1.0000        0.0000   324847  100.00%
Elapsed time = 182.90 sec. (189811.50 ticks, tree = 1.23 MB, solutions = 3)
    100   102       -0.0000   474        1.0000        0.0000   328786  100.00%
    101   103       -0.0000   643        1.0000        0.0000   332490  100.00%
    103   105        0.0000   437        1.0000        0.0000   336428  100.00%
    104   106       -0.0000   791        1.0000        0.0000   339568  100.00%
    105   107        0.0000   651        1.0000        0.0000   343593  100.00%
    107   109       -0.0000   452        1.0000        0.0000   346594  100.00%
    108   110       -0.0000   480        1.0000        0.0000   348832  100.00%
    110   112        0.0000   484        1.0000        0.0000   350560  100.00%
    111   113        0.0000   561        1.0000        0.0000   352949  100.00%
    112   114        0.0005   997        1.0000        0.0000   361228  100.00%
Elapsed time = 202.28 sec. (209288.06 ticks, tree = 1.43 MB, solutions = 3)
    113   115        0.0000   715        1.0000        0.0000   366938  100.00%
    115   117       -0.0000   539        1.0000        0.0000   381952  100.00%
    116   118        0.0003   981        1.0000        0.0000   388894  100.00%
    117   119       -0.0000   539        1.0000        0.0000   392327  100.00%
    119   121       -0.0000   516        1.0000        0.0000   398354  100.00%
    120   122       -0.0000   508        1.0000        0.0000   398536  100.00%
    121   123       -0.0000   537        1.0000        0.0000   401359  100.00%
    122   124        0.0005   926        1.0000        0.0000   409027  100.00%
    123   125        0.0000   531        1.0000        0.0000   412462  100.00%
    124   126        0.0000   459        1.0000        0.0000   418344  100.00%
Elapsed time = 224.02 sec. (231014.95 ticks, tree = 1.60 MB, solutions = 3)
    125   127        0.0000   439        1.0000        0.0000   422511  100.00%
    126   128        0.0000   514        1.0000        0.0000   427079  100.00%
    127   129        0.0003   896        1.0000        0.0000   434411  100.00%
    128   130       -0.0000   443        1.0000        0.0000   438730  100.00%
    129   131       -0.0000   458        1.0000        0.0000   443574  100.00%
    130   132       -0.0000   485        1.0000        0.0000   449522  100.00%
    132   134        0.0016   948        1.0000        0.0000   454181  100.00%
    135   137        0.0000   365        1.0000        0.0000   457541  100.00%
    136   138       -0.0000   363        1.0000        0.0000   465004  100.00%
    138   140        0.0000   352        1.0000        0.0000   478026  100.00%
Elapsed time = 244.64 sec. (252278.12 ticks, tree = 1.78 MB, solutions = 3)
    140   142        0.0000   333        1.0000        0.0000   486814  100.00%
    142   144        0.0000   384        1.0000        0.0000   504501  100.00%
    144   146        0.0000   376        1.0000        0.0000   518195  100.00%
    146   148        0.0019   860        1.0000        0.0000   534379  100.00%
    149   151        0.0000   323        1.0000        0.0000   546212  100.00%
    153   155       -0.0000   275        1.0000        0.0000   553139  100.00%
    158   160        0.0000   259        1.0000        0.0000   563460  100.00%
    164   166        0.0020   893        1.0000        0.0000   575643  100.00%
    167   169        0.0016   893        1.0000        0.0000   588792  100.00%
    169   171        0.0023   820        1.0000        0.0000   601375  100.00%
Elapsed time = 291.34 sec. (299724.33 ticks, tree = 2.21 MB, solutions = 3)
    174   176        0.0022   806        1.0000        0.0000   614534  100.00%
    178   180       -0.0000   302        1.0000        0.0000   624723  100.00%
    183   185       -0.0000   282        1.0000        0.0000   636600  100.00%
    185   187        0.0019   832        1.0000        0.0000   651160  100.00%
    187   189        0.0000   347        1.0000        0.0000   670277  100.00%
    189   191        0.0016   872        1.0000        0.0000   687084  100.00%
    191   193        0.0008   845        1.0000        0.0000   701599  100.00%
    195   197        0.0000   255        1.0000        0.0000   718610  100.00%
    197   199        0.0023   827        1.0000        0.0000   733687  100.00%
    199   201        0.0020   867        1.0000        0.0000   752805  100.00%
Elapsed time = 341.53 sec. (349776.01 ticks, tree = 2.65 MB, solutions = 3)
    200   202        0.0000   285        1.0000        0.0000   759882  100.00%
    203   205        0.0000   294        1.0000        0.0000   777742  100.00%
    205   207        0.0031   851        1.0000        0.0000   799336  100.00%
    207   209        0.0008   826        1.0000        0.0000   814060  100.00%
    210   212        0.0033   806        1.0000        0.0000   829971  100.00%
    214   216        0.0000   201        1.0000        0.0000   843403  100.00%
    216   218        0.0000   220        1.0000        0.0000   857119  100.00%
    218   220        0.0000   217        1.0000        0.0000   873432  100.00%
    220   222        0.0000   215        1.0000        0.0000   886647  100.00%
    222   224        0.0000   219        1.0000        0.0000   903249  100.00%
Elapsed time = 391.81 sec. (399393.66 ticks, tree = 2.96 MB, solutions = 3)
    224   226        0.0000   233        1.0000        0.0000   918116  100.00%
    225   227        0.0016   866        1.0000        0.0000   934027  100.00%
    227   229        0.0016   833        1.0000        0.0000   949514  100.00%
    230   232        0.0024   856        1.0000        0.0000   971413  100.00%
    233   235        0.0016   894        1.0000        0.0000   988768  100.00%
    236   238        0.0008   843        1.0000        0.0000   999923  100.00%
    240   242        0.0000   219        1.0000        0.0000  1012724  100.00%
    242   244        0.0004   840        1.0000        0.0000  1030828  100.00%
    252   254        0.0004   783        1.0000        0.0000  1035178  100.00%
    260   262        0.0222   785        1.0000        0.0000  1045427  100.00%
Elapsed time = 440.38 sec. (447782.80 ticks, tree = 3.55 MB, solutions = 3)
    277   279        0.0227   857        1.0000        0.0000  1048719  100.00%
    289   291        0.0005   769        1.0000        0.0000  1054738  100.00%
    296   298        0.0005   766        1.0000        0.0000  1064969  100.00%
    309   311        0.0005   767        1.0000        0.0000  1067865  100.00%
    320   322        0.0005   767        1.0000        0.0000  1074557  100.00%
    333   335        0.0005   765        1.0000        0.0000  1080027  100.00%
    344   346        0.0005   759        1.0000        0.0000  1085989  100.00%
    352   354        0.0005   761        1.0000        0.0000  1095223  100.00%
    358   360        0.0078   865        1.0000        0.0000  1105869  100.00%
    366   368        0.0227   792        1.0000        0.0000  1113605  100.00%
Elapsed time = 479.67 sec. (488161.89 ticks, tree = 5.36 MB, solutions = 3)
    378   380        0.0009   809        1.0000        0.0000  1116887  100.00%
    389   391        0.0078   826        1.0000        0.0000  1122606  100.00%
    400   402        0.0009   811        1.0000        0.0000  1127892  100.00%
    411   413        0.0227   835        1.0000        0.0000  1134234  100.00%
    423   425        0.0010   802        1.0000        0.0000  1140054  100.00%
    432   434        0.0079   788        1.0000        0.0000  1147864  100.00%
    440   442        0.0227   826        1.0000        0.0000  1156155  100.00%
    452   454        0.0079   820        1.0000        0.0000  1163266  100.00%
    463   465        0.0227   837        1.0000        0.0000  1171836  100.00%
    474   476        0.0079   814        1.0000        0.0000  1179010  100.00%
Elapsed time = 522.44 sec. (531237.67 ticks, tree = 7.16 MB, solutions = 3)
    484   486        0.0227   804        1.0000        0.0000  1185368  100.00%
    489   491        0.0000   212        1.0000        0.0000  1190163  100.00%
    490   492        0.0000   332        1.0000        0.0000  1199039  100.00%

Root node processing (before b&c):
  Real time             =   20.09 sec. (21524.75 ticks)
Sequential b&c:
  Real time             =  579.92 sec. (578946.62 ticks)
                          ------------
Total (root+branch&cut) =  600.01 sec. (600471.37 ticks)
Primal:	1
Dual:	0
Status:	Feasible
Time:	599.99
Sequence:
	24
	11
	12
	5
	12
	10
	20
	0
	23
	5
	16
	5
	19
	4
	20
	5
	12
	9
	12
	5
	23
	1
	19
	5
	12
	10
	18
	0
	20
	8
	14
	5
	22
	1
	18
	8
	18
	5
	17
	5
	18
	4
	19
	5
	12
	8
	12
	7
	16
	5
	18
	8
	19
	7
	20
	5
	5
	11
	12
	5
	12
	8
	7
	5
	12
	8
	5
	7
	9
	5
	12
	10
	20
	6
	16
	5
	5
	15
	8
	5
	14
	8
	14
	5
	17
	10
	12
	9
	20
	5
	14
	8
	12
	6
	20
	8
	18
	5
	5
	10
	12
	5
	20
	11
	8
	5
	12
	8
	15
	18
	16
	5
	9
	6
	14
	8
	20
	5
	13
	5
	5
	5
	16
	5
	20
	10
	5
	14
	9
	12
	5
	17
	5
	13
	5
	18
	4
	18
	6
	12
	5
	20
	5
	18
	3
	20
	5
	17
	5
	18
	3
	20
	5
	14
	5
	21
	2
	18
	5
	16
	7
	18
	4
	18
	5
	13
	5
	20
	4
	18
	6
	12
	8
	18
	1
	21
	5
	14
	5
	20
	0
	18
	10
	12
	5
	19
	4
	20
	5
	18
	6
	20
	2
	20
	5
	13
	14
	17
	5
	20
	0
	18
	17
	12
	10
	20
	0
	18
	8
	16
	5
	24
	1
	18
	8
	12
	7
	18
	2
	20
	5
	15
	5
	18
	2
	18
	7
	17
	12
	18
	2
	21
	5
	12
	10
	18
	0
	18
	10
	20
	17
	23
	0
	20
	8
	12
	14
	21
	2
	20
	5
	12
	7
	8
	14
	5
	12
	9
	5
	12
	10
	20
	0
	18
	8
	14
	12
	18
	3
	20
	16
	17
	5
	19
	2
	18
	1
	14
	9
	18
	1
	18
	10
	7
	14
	18
	4
	20
	6
	12
	5
	20
	1
	19
	8
	12
	5
	14
	12
	13
